n_res = 4;
rc = [ 20, 15, 18, 13 ];
n_tasks = 30;
d = [ 10, 8, 5, 10, 4, 2, 3, 6, 2, 6, 7, 3, 6, 9, 4, 7, 3, 1, 5, 5, 9, 5, 3, 4, 9, 3, 1, 4, 5, 6 ];
rr = [| 6, 10, 6, 0, 0, 5, 0, 0, 8, 0, 6, 6, 0, 0, 0, 5, 4, 0, 10, 5, 6, 6, 1, 0, 0, 0, 8, 5, 0, 0
      | 0, 0, 0, 0, 4, 0, 0, 0, 0, 6, 0, 6, 6, 7, 0, 0, 0, 0, 1, 0, 0, 0, 0, 0, 8, 10, 0, 0, 7, 0
      | 10, 0, 0, 6, 7, 8, 2, 0, 0, 2, 10, 9, 0, 0, 10, 2, 0, 6, 2, 1, 0, 0, 0, 5, 0, 0, 8, 0, 6, 9
      | 0, 1, 2, 4, 7, 0, 0, 3, 6, 0, 0, 0, 0, 4, 1, 0, 2, 6, 9, 0, 1, 8, 5, 2, 5, 2, 0, 5, 2, 0 |];
suc = [ { 2 }, 
        { 3 }, 
        { 4 }, 
        { 5 }, 
        { 6 }, 
        { 7 }, 
        { 8 }, 
        { 9 }, 
        { 10 }, 
        { 11 }, 
        { 12 }, 
        { 13 }, 
        { 14 }, 
        { 15 }, 
        { 16 }, 
        { 17 }, 
        { 18 }, 
        { 19 }, 
        { 20 }, 
        { 21 }, 
        { 22 }, 
        { 23 }, 
        { 24 }, 
        { 25 }, 
        { 26 }, 
        { 27 }, 
        { 28 }, 
        { 29 }, 
        { 30 }, 
        {  }]; 
